%pal nprocs 8 end

!LDA aug-cc-pwcv5z NORI NORIJCOSX Bohrs VeryTightSCF DEFGRID3 NoUseSym

*xyzfile 0 1 geom.xyz
